Constructor : 
	simulation seed: 13
	output path: ./out/Small
	input data folder ./in/MILPexp
	output data folder ./out/Small/S6D3U4/13
	loading data from ./in/MILPexp
	initializing MILP Solver
Set parameter Username
Set parameter TimeLimit to value 86400
Set parameter MemLimit to value 64
Set parameter Method to value 0
Academic license - for non-commercial use only - expires 2023-04-21
	 Setting up MILP
6, 6
	 Saving MILP in ./out/Small/S6D3U4/13/MILP-primal/model.lp
Warning: linear constraint 105355 and linear constraint 114815 have the same name "socInit_1"
Gurobi Optimizer version 9.5.1 build v9.5.1rc2 (linux64)
Thread count: 24 physical cores, 48 logical processors, using up to 24 threads
Optimize a model with 117747 rows, 969 columns and 526836 nonzeros
Model fingerprint: 0x425ecc95
Variable types: 57 continuous, 912 integer (912 binary)
Coefficient statistics:
  Matrix range     [1e+00, 2e+05]
  Objective range  [1e+00, 1e+00]
  Bounds range     [1e+00, 1e+00]
  RHS range        [1e+00, 6e+05]
Presolve removed 30867 rows and 238 columns
Presolve time: 4.82s
Presolved: 86880 rows, 731 columns, 386202 nonzeros
Variable types: 45 continuous, 686 integer (686 binary)

Root simplex log...

Iteration    Objective       Primal Inf.    Dual Inf.      Time
       0   -0.0000000e+00   0.000000e+00   1.385200e+04      6s
    3179    1.5000000e+01   0.000000e+00   0.000000e+00      6s
    3179    1.5000000e+01   0.000000e+00   0.000000e+00      6s

Root relaxation: objective 1.500000e+01, 3179 iterations, 1.05 seconds (0.63 work units)

    Nodes    |    Current Node    |     Objective Bounds      |     Work
 Expl Unexpl |  Obj  Depth IntInf | Incumbent    BestBd   Gap | It/Node Time

     0     0   15.00000    0   64          -   15.00000      -     -    9s
     0     0   15.15689    0  112          -   15.15689      -     -   11s
     0     0   15.15689    0  111          -   15.15689      -     -   12s
     0     0   16.19980    0  174          -   16.19980      -     -   17s
     0     0   16.63865    0  191          -   16.63865      -     -   18s
     0     0   16.63865    0  191          -   16.63865      -     -   19s
     0     0   17.11168    0  228          -   17.11168      -     -   23s
     0     0   17.25603    0  211          -   17.25603      -     -   23s
     0     0   17.25603    0  210          -   17.25603      -     -   24s
     0     0   17.78038    0  172          -   17.78038      -     -   26s
     0     0   17.79526    0  179          -   17.79526      -     -   26s
     0     0   17.79526    0  179          -   17.79526      -     -   27s
     0     0   18.36725    0  207          -   18.36725      -     -   28s
     0     0   18.84327    0  192          -   18.84327      -     -   28s
     0     0   18.84327    0  192          -   18.84327      -     -   29s
     0     0   19.02483    0  181          -   19.02483      -     -   30s
     0     0   19.02641    0  168          -   19.02641      -     -   31s
     0     0   19.02641    0  163          -   19.02641      -     -   32s
     0     0   19.02641    0  152          -   19.02641      -     -   34s
     0     0   19.02641    0  155          -   19.02641      -     -   34s
     0     0   19.02641    0  162          -   19.02641      -     -   35s
     0     0   19.02641    0  161          -   19.02641      -     -   36s
     0     0   19.02641    0  132          -   19.02641      -     -   38s
     0     0   19.02641    0  142          -   19.02641      -     -   39s
     0     0   19.02641    0  138          -   19.02641      -     -   42s
     0     0   19.02641    0  156          -   19.02641      -     -   42s
     0     0   19.02641    0  149          -   19.02641      -     -   45s
     0     0   19.02641    0  132          -   19.02641      -     -   48s
     0     2   19.02641    0  125          -   19.02641      -     -   61s
     7    16   19.29324    3  142          -   19.02678      -   254   65s
    31    56   20.22472    5  150          -   19.02678      -   263   72s
    79   104   40.73951    7  115          -   19.02678      -   230   76s
   127   161   23.53893    8  191          -   19.28916      -   175   80s
   231   267   24.81349   13  183          -   19.28916      -   144   85s
   352   389   40.00000   16   90          -   19.28916      -   137   90s
   488   521   40.00000   21   88          -   19.28916      -   129   96s
   663   681   40.00000   29   67          -   19.28916      -   126  101s
   786   781   40.00000   35   43          -   19.28916      -   125  105s
   998   965   40.00000   46   59          -   19.28916      -   121  111s
  1168  1075  141.00087   48   77          -   19.28916      -   115  115s
  1378  1203   40.00000   11   81          -   20.00000      -   119  121s
  1551  1317   40.00000   14   74          -   20.00000      -   116  125s
  1795  1493   40.00000   20   69          -   20.00000      -   117  130s
  2049  1686   40.00000   27   82          -   20.00000      -   122  135s
  2244  1798  586.72757   29   72          -   20.00000      -   122  140s
  2556  1942 1051.58112   25  132          -   20.00000      -   126  166s
  2558  1943  755.71429   29  223          -   20.00000      -   126  177s
  2559  1944   40.00000   19  165          -   21.99036      -   126  183s
  2561  1945 1510.00000   32  166          -   22.01793      -   126  189s
  2562  1946   40.00000   44  147          -   24.69793      -   126  193s
  2563  1947  545.41236   35  148          -   24.69805      -   126  197s
  2564  1947  223.21603   16  159          -   25.70731      -   126  221s
  2566  1949   40.00000   21  155          -   25.70782      -   126  227s
  2567  1949   40.00000   15  157          -   26.10572      -   126  236s
  2571  1952  585.41236   24  178          -   26.42345      -   125  245s
  2572  1953 1470.20806   41  166          -   26.48726      -   125  254s
  2573  1953  755.71429   44  171          -   26.49108      -   125  260s
  2574  1954   40.00000   13  175          -   26.51659      -   125  268s
  2575  1955  223.21603   16  194          -   26.51885      -   125  277s
  2576  1955 1016.02556   34  182          -   26.56390      -   125  293s
  2577  1956 1470.00000   34  185          -   26.56422      -   125  303s
  2578  1957   40.00000   36  178          -   26.56471      -   125  318s
  2580  1958 1051.58112   33  207          -   26.57665      -   125  334s
  2581  1959 1046.65928   10  182          -   26.58801      -   125  354s
  2582  1959 1314.62688   16  202          -   26.59181      -   125  372s
  2583  1960   40.00000    7  169          -   26.70774      -   125  397s
  2584  1961  585.41236   26  167          -   26.70774      -   125  412s
  2586  1963  223.21603   37  132          -   26.70774      -   134  440s
  2588  1964   80.00000   22  216          -   26.70774      -   134  478s
  2589  1965   40.00000   19  196          -   26.70774      -   134  549s
  2590  1966 1297.06367   45  150          -   26.70774      -   134  552s
  2591  1966   40.00000   20  159          -   26.70774      -   134  564s
  2592  1967   40.00000   14  170          -   26.70774      -   134  584s
  2593  1968  755.71429   22  164          -   26.70774      -   134  606s
  2594  1968   40.00200   36  154          -   26.70774      -   134  633s
  2595  1969 1471.42857   14  167          -   26.70774      -   134  651s
  2596  1970 1051.58112   15  172          -   26.70774      -   134  676s
  2597  1970   40.00000   20  167          -   26.70774      -   134  689s
  2598  1971   79.67628   37  191          -   26.70774      -   134  718s
  2599  1972   40.00000   13  187          -   26.70774      -   134  736s
  2600  1972   40.00000   33  193          -   26.70774      -   134  761s
  2601  1973   40.00000   23  184          -   26.70774      -   134  777s
  2602  1974   59.76329   40  180          -   26.70774      -   133  804s
  2603  1974  755.71429   25  184          -   26.70774      -   133  809s
  2604  1975  545.41236   42  169          -   26.70774      -   133  824s
  2605  1976 1358.23978   45  173          -   26.70774      -   133  828s
  2606  1976 1314.62688   21  205          -   26.70774      -   133  836s
  2607  1977   40.00000   13  196          -   26.70774      -   133  842s
  2608  1978 1464.24964   41  192          -   26.70774      -   133  862s
  2609  1978  246.85598    7  187          -   26.70774      -   133  870s
  2610  1979   41.39640   38  187          -   26.72203      -   133  900s
  2611  1983   26.72203   22  179          -   26.72203      -  18.8  954s
  2613  1984   26.77191   23  192          -   26.77191      -  19.0 1002s
  2617  1989   26.77191   24  183          -   26.77191      -  19.4 1025s
  2623  1999   26.78204   25  184          -   26.78204      -  19.9 1039s
  2635  2017   26.82059   26  158          -   26.78204      -  20.8 1060s
  2659  2033   26.90690   27  151          -   26.82514      -  22.5 1068s
  2683  2049   26.93468   28  142          -   26.82514      -  22.9 1073s
  2707  2063   30.00000   28  140          -   26.82514      -  24.0 1081s
  2731  2081   26.98359   29  135          -   26.82514      -  24.4 1086s
  2757  2109   40.00000   29   74          -   26.82514      -  25.2 1092s
  2794  2137   26.98433   30  142          -   26.82514      -  25.8 1096s
  2834  2156   26.98395   30  160          -   26.82514      -  26.5 1103s
  2867  2182   27.14082   31  146          -   26.82514      -  27.1 1110s
  2904  2218   40.00000   31  105          -   26.82514      -  28.9 1121s
  2956  2254   27.32689   32  136          -   26.82514      -  29.8 1127s
